p cnf 430 1488
-191 72 0
-191 70 0
-191 -39 0
-191 -172 0
-191 177 0
191 -72 -70 39 172 -177 0
-192 9 0
-192 -14 0
-192 55 0
-192 -94 0
-192 144 0
192 -9 14 -55 94 -144 0
-193 -137 0
-193 52 0
-193 -176 0
-193 -58 0
-193 -72 0
193 137 -52 176 58 72 0
-194 -54 0
-194 -113 0
-194 1 0
-194 136 0
-194 13 0
194 54 113 -1 -136 -13 0
-195 -189 0
-195 57 0
-195 -157 0
-195 -72 0
-195 133 0
195 189 -57 157 72 -133 0
191 192 193 194 195 0
-196 95 0
-196 -3 0
-196 -54 0
-196 -153 0
-196 120 0
196 -95 3 54 153 -120 0
-197 -145 0
-197 172 0
-197 81 0
-197 -126 0
-197 -28 0
197 145 -172 -81 126 28 0
-198 24 0
-198 -183 0
-198 114 0
-198 157 0
-198 -136 0
198 -24 183 -114 -157 136 0
-199 -148 0
-199 -141 0
-199 -31 0
-199 4 0
-199 128 0
199 148 141 31 -4 -128 0
-200 -127 0
-200 -159 0
-200 21 0
-200 -79 0
-200 3 0
200 127 159 -21 79 -3 0
196 197 198 199 200 0
-201 86 0
-201 -52 0
-201 -66 0
-201 -64 0
-201 -3 0
201 -86 52 66 64 3 0
-202 -97 0
-202 81 0
-202 -67 0
-202 -74 0
-202 22 0
202 97 -81 67 74 -22 0
-203 48 0
-203 -6 0
-203 104 0
-203 -153 0
-203 32 0
203 -48 6 -104 153 -32 0
-204 49 0
-204 -36 0
-204 -176 0
-204 -100 0
-204 -26 0
204 -49 36 176 100 26 0
-205 -171 0
-205 -8 0
-205 -26 0
-205 -186 0
-205 60 0
205 171 8 26 186 -60 0
201 202 203 204 205 0
-206 -83 0
-206 -126 0
-206 -110 0
-206 98 0
-206 173 0
206 83 126 110 -98 -173 0
-207 -140 0
-207 87 0
-207 136 0
-207 168 0
-207 6 0
207 140 -87 -136 -168 -6 0
-208 107 0
-208 46 0
-208 69 0
-208 55 0
-208 -123 0
208 -107 -46 -69 -55 123 0
-209 -47 0
-209 99 0
-209 -82 0
-209 69 0
-209 5 0
209 47 -99 82 -69 -5 0
-210 -11 0
-210 -144 0
-210 -114 0
-210 60 0
-210 -178 0
210 11 144 114 -60 178 0
206 207 208 209 210 0
-211 88 0
-211 190 0
-211 -180 0
-211 -120 0
-211 67 0
211 -88 -190 180 120 -67 0
-212 132 0
-212 -23 0
-212 122 0
-212 -165 0
-212 142 0
212 -132 23 -122 165 -142 0
-213 -187 0
-213 177 0
-213 -129 0
-213 189 0
-213 16 0
213 187 -177 129 -189 -16 0
-214 -124 0
-214 -171 0
-214 -58 0
-214 -55 0
-214 46 0
214 124 171 58 55 -46 0
-215 86 0
-215 -116 0
-215 -138 0
-215 77 0
-215 153 0
215 -86 116 138 -77 -153 0
211 212 213 214 215 0
-216 140 0
-216 -36 0
-216 120 0
-216 114 0
-216 188 0
216 -140 36 -120 -114 -188 0
-217 -55 0
-217 -102 0
-217 -82 0
-217 -37 0
-217 64 0
217 55 102 82 37 -64 0
-218 99 0
-218 -107 0
-218 -185 0
-218 -31 0
-218 124 0
218 -99 107 185 31 -124 0
-219 2 0
-219 -143 0
-219 12 0
-219 136 0
-219 156 0
219 -2 143 -12 -136 -156 0
-220 -84 0
-220 87 0
-220 -59 0
-220 147 0
-220 83 0
220 84 -87 59 -147 -83 0
216 217 218 219 220 0
-221 167 0
-221 149 0
-221 135 0
-221 -24 0
-221 -90 0
221 -167 -149 -135 24 90 0
-222 75 0
-222 59 0
-222 -26 0
-222 167 0
-222 -42 0
222 -75 -59 26 -167 42 0
-223 -93 0
-223 -25 0
-223 -88 0
-223 46 0
-223 179 0
223 93 25 88 -46 -179 0
-224 43 0
-224 -73 0
-224 19 0
-224 27 0
-224 78 0
224 -43 73 -19 -27 -78 0
-225 -19 0
-225 98 0
-225 67 0
-225 -64 0
-225 152 0
225 19 -98 -67 64 -152 0
221 222 223 224 225 0
-226 -114 0
-226 -86 0
-226 180 0
-226 -11 0
-226 -77 0
226 114 86 -180 11 77 0
-227 -134 0
-227 -184 0
-227 -117 0
-227 56 0
-227 -43 0
227 134 184 117 -56 43 0
-228 -110 0
-228 -177 0
-228 153 0
-228 -39 0
-228 87 0
228 110 177 -153 39 -87 0
-229 -116 0
-229 16 0
-229 148 0
-229 -163 0
-229 77 0
229 116 -16 -148 163 -77 0
-230 -117 0
-230 52 0
-230 -28 0
-230 -186 0
-230 -15 0
230 117 -52 28 186 15 0
226 227 228 229 230 0
-231 89 0
-231 22 0
-231 56 0
-231 77 0
-231 -64 0
231 -89 -22 -56 -77 64 0
-232 -46 0
-232 -154 0
-232 149 0
-232 -93 0
-232 -153 0
232 46 154 -149 93 153 0
-233 -18 0
-233 26 0
-233 112 0
-233 -183 0
-233 149 0
233 18 -26 -112 183 -149 0
-234 -17 0
-234 31 0
-234 -189 0
-234 114 0
-234 -20 0
234 17 -31 189 -114 20 0
-235 83 0
-235 78 0
-235 165 0
-235 -69 0
-235 -56 0
235 -83 -78 -165 69 56 0
231 232 233 234 235 0
-236 136 0
-236 77 0
-236 -187 0
-236 -43 0
-236 135 0
236 -136 -77 187 43 -135 0
-237 -18 0
-237 130 0
-237 -167 0
-237 142 0
-237 168 0
237 18 -130 167 -142 -168 0
-238 126 0
-238 99 0
-238 -61 0
-238 -147 0
-238 -85 0
238 -126 -99 61 147 85 0
-239 -105 0
-239 181 0
-239 65 0
-239 -45 0
-239 -132 0
239 105 -181 -65 45 132 0
-240 190 0
-240 133 0
-240 74 0
-240 13 0
-240 -170 0
240 -190 -133 -74 -13 170 0
236 237 238 239 240 0
-241 -41 0
-241 -65 0
-241 -59 0
-241 75 0
-241 -33 0
241 41 65 59 -75 33 0
-242 -120 0
-242 -97 0
-242 16 0
-242 148 0
-242 -133 0
242 120 97 -16 -148 133 0
-243 136 0
-243 -54 0
-243 -107 0
-243 -18 0
-243 -132 0
243 -136 54 107 18 132 0
-244 13 0
-244 147 0
-244 -22 0
-244 -145 0
-244 -184 0
244 -13 -147 22 145 184 0
-245 -77 0
-245 -165 0
-245 -168 0
-245 -144 0
-245 -6 0
245 77 165 168 144 6 0
241 242 243 244 245 0
-246 -41 0
-246 133 0
-246 165 0
-246 101 0
-246 128 0
246 41 -133 -165 -101 -128 0
-247 2 0
-247 65 0
-247 114 0
-247 184 0
-247 46 0
247 -2 -65 -114 -184 -46 0
-248 -180 0
-248 -22 0
-248 -19 0
-248 82 0
-248 -30 0
248 180 22 19 -82 30 0
-249 -174 0
-249 41 0
-249 -53 0
-249 -177 0
-249 102 0
249 174 -41 53 177 -102 0
-250 -158 0
-250 -50 0
-250 5 0
-250 94 0
-250 -60 0
250 158 50 -5 -94 60 0
246 247 248 249 250 0
-251 124 0
-251 -53 0
-251 -46 0
-251 -37 0
-251 140 0
251 -124 53 46 37 -140 0
-252 168 0
-252 136 0
-252 -156 0
-252 111 0
-252 -100 0
252 -168 -136 156 -111 100 0
-253 173 0
-253 -129 0
-253 25 0
-253 -136 0
-253 -44 0
253 -173 129 -25 136 44 0
-254 -74 0
-254 121 0
-254 42 0
-254 -187 0
-254 119 0
254 74 -121 -42 187 -119 0
-255 70 0
-255 -149 0
-255 -99 0
-255 174 0
-255 -145 0
255 -70 149 99 -174 145 0
251 252 253 254 255 0
-256 3 0
-256 171 0
-256 -50 0
-256 127 0
-256 22 0
256 -3 -171 50 -127 -22 0
-257 105 0
-257 -181 0
-257 22 0
-257 95 0
-257 -127 0
257 -105 181 -22 -95 127 0
-258 29 0
-258 -14 0
-258 137 0
-258 36 0
-258 -83 0
258 -29 14 -137 -36 83 0
-259 183 0
-259 -14 0
-259 6 0
-259 64 0
-259 -98 0
259 -183 14 -6 -64 98 0
-260 22 0
-260 -130 0
-260 -165 0
-260 -12 0
-260 -1 0
260 -22 130 165 12 1 0
256 257 258 259 260 0
-261 1 0
-261 45 0
-261 150 0
-261 -126 0
-261 -111 0
261 -1 -45 -150 126 111 0
-262 44 0
-262 -53 0
-262 128 0
-262 -124 0
-262 134 0
262 -44 53 -128 124 -134 0
-263 -4 0
-263 156 0
-263 -24 0
-263 77 0
-263 -41 0
263 4 -156 24 -77 41 0
-264 54 0
-264 -112 0
-264 -122 0
-264 73 0
-264 -1 0
264 -54 112 122 -73 1 0
-265 -98 0
-265 65 0
-265 44 0
-265 110 0
-265 -27 0
265 98 -65 -44 -110 27 0
261 262 263 264 265 0
-266 -150 0
-266 -32 0
-266 173 0
-266 42 0
-266 128 0
266 150 32 -173 -42 -128 0
-267 101 0
-267 52 0
-267 43 0
-267 -69 0
-267 19 0
267 -101 -52 -43 69 -19 0
-268 -150 0
-268 -39 0
-268 2 0
-268 -75 0
-268 109 0
268 150 39 -2 75 -109 0
-269 -176 0
-269 79 0
-269 140 0
-269 -15 0
-269 35 0
269 176 -79 -140 15 -35 0
-270 4 0
-270 -29 0
-270 -93 0
-270 118 0
-270 -1 0
270 -4 29 93 -118 1 0
266 267 268 269 270 0
-271 23 0
-271 -21 0
-271 -49 0
-271 -122 0
-271 188 0
271 -23 21 49 122 -188 0
-272 -151 0
-272 -32 0
-272 131 0
-272 -112 0
-272 -117 0
272 151 32 -131 112 117 0
-273 -27 0
-273 186 0
-273 175 0
-273 118 0
-273 -136 0
273 27 -186 -175 -118 136 0
-274 -45 0
-274 21 0
-274 -47 0
-274 -115 0
-274 88 0
274 45 -21 47 115 -88 0
-275 -81 0
-275 47 0
-275 22 0
-275 -32 0
-275 -52 0
275 81 -47 -22 32 52 0
271 272 273 274 275 0
-276 95 0
-276 56 0
-276 -157 0
-276 -104 0
-276 -117 0
276 -95 -56 157 104 117 0
-277 -179 0
-277 160 0
-277 -153 0
-277 24 0
-277 34 0
277 179 -160 153 -24 -34 0
-278 -77 0
-278 -104 0
-278 -167 0
-278 28 0
-278 -177 0
278 77 104 167 -28 177 0
-279 -57 0
-279 -63 0
-279 1 0
-279 89 0
-279 -23 0
279 57 63 -1 -89 23 0
-280 46 0
-280 -109 0
-280 114 0
-280 -1 0
-280 70 0
280 -46 109 -114 1 -70 0
276 277 278 279 280 0
-281 146 0
-281 113 0
-281 -3 0
-281 -19 0
-281 5 0
281 -146 -113 3 19 -5 0
-282 173 0
-282 -69 0
-282 -155 0
-282 -131 0
-282 148 0
282 -173 69 155 131 -148 0
-283 -132 0
-283 -53 0
-283 -4 0
-283 -151 0
-283 -111 0
283 132 53 4 151 111 0
-284 23 0
-284 -37 0
-284 155 0
-284 18 0
-284 -1 0
284 -23 37 -155 -18 1 0
-285 -6 0
-285 105 0
-285 77 0
-285 -17 0
-285 131 0
285 6 -105 -77 17 -131 0
281 282 283 284 285 0
-286 137 0
-286 1 0
-286 125 0
-286 -9 0
-286 123 0
286 -137 -1 -125 9 -123 0
-287 171 0
-287 -41 0
-287 45 0
-287 184 0
-287 -79 0
287 -171 41 -45 -184 79 0
-288 170 0
-288 -8 0
-288 -133 0
-288 127 0
-288 113 0
288 -170 8 133 -127 -113 0
-289 -67 0
-289 31 0
-289 149 0
-289 -162 0
-289 125 0
289 67 -31 -149 162 -125 0
-290 134 0
-290 -48 0
-290 -36 0
-290 -125 0
-290 -109 0
290 -134 48 36 125 109 0
286 287 288 289 290 0
-291 121 0
-291 -30 0
-291 169 0
-291 110 0
-291 -53 0
291 -121 30 -169 -110 53 0
-292 -94 0
-292 -170 0
-292 97 0
-292 136 0
-292 -150 0
292 94 170 -97 -136 150 0
-293 -19 0
-293 25 0
-293 140 0
-293 -63 0
-293 -84 0
293 19 -25 -140 63 84 0
-294 -2 0
-294 110 0
-294 171 0
-294 -138 0
-294 53 0
294 2 -110 -171 138 -53 0
-295 -83 0
-295 186 0
-295 -23 0
-295 78 0
-295 144 0
295 83 -186 23 -78 -144 0
291 292 293 294 295 0
-296 125 0
-296 -36 0
-296 185 0
-296 -109 0
-296 5 0
296 -125 36 -185 109 -5 0
-297 -52 0
-297 129 0
-297 56 0
-297 14 0
-297 -24 0
297 52 -129 -56 -14 24 0
-298 56 0
-298 -57 0
-298 153 0
-298 71 0
-298 88 0
298 -56 57 -153 -71 -88 0
-299 37 0
-299 132 0
-299 -6 0
-299 71 0
-299 2 0
299 -37 -132 6 -71 -2 0
-300 -4 0
-300 -135 0
-300 14 0
-300 5 0
-300 -49 0
300 4 135 -14 -5 49 0
296 297 298 299 300 0
-301 140 0
-301 -130 0
-301 -165 0
-301 -124 0
-301 -187 0
301 -140 130 165 124 187 0
-302 -82 0
-302 23 0
-302 5 0
-302 -38 0
-302 125 0
302 82 -23 -5 38 -125 0
-303 -23 0
-303 33 0
-303 185 0
-303 124 0
-303 -1 0
303 23 -33 -185 -124 1 0
-304 -96 0
-304 23 0
-304 40 0
-304 8 0
-304 -123 0
304 96 -23 -40 -8 123 0
-305 -72 0
-305 165 0
-305 -96 0
-305 -152 0
-305 -189 0
305 72 -165 96 152 189 0
301 302 303 304 305 0
-306 -157 0
-306 -26 0
-306 -22 0
-306 161 0
-306 -80 0
306 157 26 22 -161 80 0
-307 -1 0
-307 132 0
-307 -43 0
-307 -48 0
-307 -39 0
307 1 -132 43 48 39 0
-308 182 0
-308 -153 0
-308 71 0
-308 155 0
-308 167 0
308 -182 153 -71 -155 -167 0
-309 -140 0
-309 113 0
-309 -89 0
-309 102 0
-309 170 0
309 140 -113 89 -102 -170 0
-310 -72 0
-310 161 0
-310 -176 0
-310 -166 0
-310 -15 0
310 72 -161 176 166 15 0
306 307 308 309 310 0
-311 93 0
-311 -65 0
-311 4 0
-311 101 0
-311 142 0
311 -93 65 -4 -101 -142 0
-312 5 0
-312 55 0
-312 -20 0
-312 -161 0
-312 8 0
312 -5 -55 20 161 -8 0
-313 164 0
-313 -102 0
-313 -37 0
-313 -99 0
-313 -52 0
313 -164 102 37 99 52 0
-314 -152 0
-314 75 0
-314 -180 0
-314 31 0
-314 59 0
314 152 -75 180 -31 -59 0
-315 -93 0
-315 74 0
-315 121 0
-315 -119 0
-315 -99 0
315 93 -74 -121 119 99 0
311 312 313 314 315 0
-316 126 0
-316 154 0
-316 123 0
-316 1 0
-316 -63 0
316 -126 -154 -123 -1 63 0
-317 167 0
-317 73 0
-317 -80 0
-317 181 0
-317 -129 0
317 -167 -73 80 -181 129 0
-318 52 0
-318 -145 0
-318 183 0
-318 -139 0
-318 -150 0
318 -52 145 -183 139 150 0
-319 137 0
-319 -189 0
-319 -45 0
-319 -119 0
-319 101 0
319 -137 189 45 119 -101 0
-320 119 0
-320 -81 0
-320 -7 0
-320 57 0
-320 -89 0
320 -119 81 7 -57 89 0
316 317 318 319 320 0
-321 158 0
-321 -187 0
-321 55 0
-321 94 0
-321 51 0
321 -158 187 -55 -94 -51 0
-322 171 0
-322 75 0
-322 -19 0
-322 -147 0
-322 76 0
322 -171 -75 19 147 -76 0
-323 162 0
-323 26 0
-323 -4 0
-323 -45 0
-323 -179 0
323 -162 -26 4 45 179 0
-324 57 0
-324 -112 0
-324 126 0
-324 61 0
-324 -44 0
324 -57 112 -126 -61 44 0
-325 -52 0
-325 -74 0
-325 -62 0
-325 153 0
-325 -159 0
325 52 74 62 -153 159 0
321 322 323 324 325 0
-326 -172 0
-326 144 0
-326 -52 0
-326 -28 0
-326 100 0
326 172 -144 52 28 -100 0
-327 46 0
-327 63 0
-327 72 0
-327 -88 0
-327 -164 0
327 -46 -63 -72 88 164 0
-328 46 0
-328 89 0
-328 45 0
-328 100 0
-328 -149 0
328 -46 -89 -45 -100 149 0
-329 68 0
-329 -87 0
-329 -63 0
-329 114 0
-329 130 0
329 -68 87 63 -114 -130 0
-330 -12 0
-330 -61 0
-330 134 0
-330 154 0
-330 180 0
330 12 61 -134 -154 -180 0
326 327 328 329 330 0
-331 -162 0
-331 62 0
-331 -126 0
-331 -136 0
-331 189 0
331 162 -62 126 136 -189 0
-332 170 0
-332 -77 0
-332 117 0
-332 -124 0
-332 61 0
332 -170 77 -117 124 -61 0
-333 145 0
-333 179 0
-333 -128 0
-333 -55 0
-333 -47 0
333 -145 -179 128 55 47 0
-334 178 0
-334 -92 0
-334 -3 0
-334 104 0
-334 -130 0
334 -178 92 3 -104 130 0
-335 105 0
-335 157 0
-335 158 0
-335 -176 0
-335 -23 0
335 -105 -157 -158 176 23 0
331 332 333 334 335 0
-336 181 0
-336 177 0
-336 -10 0
-336 12 0
-336 108 0
336 -181 -177 10 -12 -108 0
-337 -130 0
-337 -67 0
-337 96 0
-337 144 0
-337 -182 0
337 130 67 -96 -144 182 0
-338 -113 0
-338 -76 0
-338 154 0
-338 -89 0
-338 -67 0
338 113 76 -154 89 67 0
-339 26 0
-339 144 0
-339 -188 0
-339 -97 0
-339 30 0
339 -26 -144 188 97 -30 0
-340 -71 0
-340 167 0
-340 168 0
-340 111 0
-340 -56 0
340 71 -167 -168 -111 56 0
336 337 338 339 340 0
-341 -98 0
-341 -185 0
-341 87 0
-341 -117 0
-341 144 0
341 98 185 -87 117 -144 0
-342 -51 0
-342 16 0
-342 -57 0
-342 -85 0
-342 -4 0
342 51 -16 57 85 4 0
-343 -30 0
-343 -134 0
-343 -171 0
-343 -64 0
-343 74 0
343 30 134 171 64 -74 0
-344 22 0
-344 74 0
-344 177 0
-344 171 0
-344 -159 0
344 -22 -74 -177 -171 159 0
-345 126 0
-345 -140 0
-345 -62 0
-345 83 0
-345 -84 0
345 -126 140 62 -83 84 0
341 342 343 344 345 0
-346 42 0
-346 100 0
-346 -188 0
-346 153 0
-346 180 0
346 -42 -100 188 -153 -180 0
-347 -107 0
-347 -61 0
-347 117 0
-347 158 0
-347 25 0
347 107 61 -117 -158 -25 0
-348 -161 0
-348 120 0
-348 -130 0
-348 159 0
-348 30 0
348 161 -120 130 -159 -30 0
-349 6 0
-349 184 0
-349 -117 0
-349 32 0
-349 -156 0
349 -6 -184 117 -32 156 0
-350 80 0
-350 103 0
-350 138 0
-350 -99 0
-350 -146 0
350 -80 -103 -138 99 146 0
346 347 348 349 350 0
-351 30 0
-351 10 0
-351 -126 0
-351 49 0
-351 -129 0
351 -30 -10 126 -49 129 0
-352 160 0
-352 -87 0
-352 -58 0
-352 75 0
-352 61 0
352 -160 87 58 -75 -61 0
-353 -99 0
-353 82 0
-353 6 0
-353 95 0
-353 -40 0
353 99 -82 -6 -95 40 0
-354 53 0
-354 1 0
-354 22 0
-354 12 0
-354 5 0
354 -53 -1 -22 -12 -5 0
-355 127 0
-355 137 0
-355 92 0
-355 144 0
-355 39 0
355 -127 -137 -92 -144 -39 0
351 352 353 354 355 0
-356 188 0
-356 95 0
-356 102 0
-356 65 0
-356 -104 0
356 -188 -95 -102 -65 104 0
-357 -57 0
-357 -136 0
-357 64 0
-357 127 0
-357 46 0
357 57 136 -64 -127 -46 0
-358 73 0
-358 62 0
-358 42 0
-358 -184 0
-358 -20 0
358 -73 -62 -42 184 20 0
-359 -83 0
-359 -19 0
-359 31 0
-359 -29 0
-359 38 0
359 83 19 -31 29 -38 0
-360 37 0
-360 -187 0
-360 -136 0
-360 -75 0
-360 -30 0
360 -37 187 136 75 30 0
356 357 358 359 360 0
-361 38 0
-361 -11 0
-361 -60 0
-361 -128 0
-361 -86 0
361 -38 11 60 128 86 0
-362 -85 0
-362 52 0
-362 -70 0
-362 -44 0
-362 -189 0
362 85 -52 70 44 189 0
-363 51 0
-363 110 0
-363 96 0
-363 -177 0
-363 -6 0
363 -51 -110 -96 177 6 0
-364 1 0
-364 177 0
-364 54 0
-364 -97 0
-364 -18 0
364 -1 -177 -54 97 18 0
-365 93 0
-365 76 0
-365 -151 0
-365 -141 0
-365 162 0
365 -93 -76 151 141 -162 0
361 362 363 364 365 0
-366 107 0
-366 -69 0
-366 -144 0
-366 26 0
-366 24 0
366 -107 69 144 -26 -24 0
-367 -157 0
-367 158 0
-367 130 0
-367 -13 0
-367 188 0
367 157 -158 -130 13 -188 0
-368 167 0
-368 58 0
-368 -140 0
-368 -147 0
-368 -128 0
368 -167 -58 140 147 128 0
-369 -46 0
-369 -100 0
-369 84 0
-369 68 0
-369 17 0
369 46 100 -84 -68 -17 0
-370 -140 0
-370 93 0
-370 -60 0
-370 43 0
-370 106 0
370 140 -93 60 -43 -106 0
366 367 368 369 370 0
-371 69 0
-371 -24 0
-371 -60 0
-371 -91 0
-371 168 0
371 -69 24 60 91 -168 0
-372 -26 0
-372 51 0
-372 -190 0
-372 162 0
-372 24 0
372 26 -51 190 -162 -24 0
-373 -172 0
-373 -119 0
-373 61 0
-373 -11 0
-373 184 0
373 172 119 -61 11 -184 0
-374 -169 0
-374 -70 0
-374 75 0
-374 -76 0
-374 -107 0
374 169 70 -75 76 107 0
-375 -17 0
-375 135 0
-375 106 0
-375 161 0
-375 -139 0
375 17 -135 -106 -161 139 0
371 372 373 374 375 0
-376 -146 0
-376 -134 0
-376 -168 0
-376 -179 0
-376 23 0
376 146 134 168 179 -23 0
-377 157 0
-377 -15 0
-377 99 0
-377 21 0
-377 -188 0
377 -157 15 -99 -21 188 0
-378 101 0
-378 76 0
-378 -111 0
-378 -42 0
-378 -163 0
378 -101 -76 111 42 163 0
-379 133 0
-379 -156 0
-379 -7 0
-379 -72 0
-379 16 0
379 -133 156 7 72 -16 0
-380 125 0
-380 -43 0
-380 120 0
-380 -70 0
-380 63 0
380 -125 43 -120 70 -63 0
376 377 378 379 380 0
-381 123 0
-381 103 0
-381 172 0
-381 -117 0
-381 -173 0
381 -123 -103 -172 117 173 0
-382 -162 0
-382 148 0
-382 164 0
-382 -5 0
-382 -150 0
382 162 -148 -164 5 150 0
-383 132 0
-383 5 0
-383 51 0
-383 -94 0
-383 -67 0
383 -132 -5 -51 94 67 0
-384 -49 0
-384 -146 0
-384 119 0
-384 -16 0
-384 -24 0
384 49 146 -119 16 24 0
-385 26 0
-385 -54 0
-385 -102 0
-385 121 0
-385 16 0
385 -26 54 102 -121 -16 0
381 382 383 384 385 0
-386 -177 0
-386 -14 0
-386 -31 0
-386 181 0
-386 -141 0
386 177 14 31 -181 141 0
-387 -63 0
-387 -105 0
-387 131 0
-387 139 0
-387 92 0
387 63 105 -131 -139 -92 0
-388 -9 0
-388 140 0
-388 127 0
-388 -172 0
-388 116 0
388 9 -140 -127 172 -116 0
-389 -3 0
-389 -181 0
-389 138 0
-389 -76 0
-389 -27 0
389 3 181 -138 76 27 0
-390 47 0
-390 -110 0
-390 -79 0
-390 -131 0
-390 71 0
390 -47 110 79 131 -71 0
386 387 388 389 390 0
-391 7 0
-391 116 0
-391 68 0
-391 109 0
-391 -78 0
391 -7 -116 -68 -109 78 0
-392 164 0
-392 111 0
-392 90 0
-392 -179 0
-392 -84 0
392 -164 -111 -90 179 84 0
-393 12 0
-393 -178 0
-393 -110 0
-393 174 0
-393 136 0
393 -12 178 110 -174 -136 0
-394 149 0
-394 -66 0
-394 72 0
-394 167 0
-394 90 0
394 -149 66 -72 -167 -90 0
-395 -164 0
-395 -89 0
-395 14 0
-395 -187 0
-395 176 0
395 164 89 -14 187 -176 0
391 392 393 394 395 0
-396 -141 0
-396 -77 0
-396 91 0
-396 -162 0
-396 106 0
396 141 77 -91 162 -106 0
-397 -35 0
-397 -90 0
-397 -147 0
-397 89 0
-397 -186 0
397 35 90 147 -89 186 0
-398 -3 0
-398 12 0
-398 75 0
-398 -15 0
-398 78 0
398 3 -12 -75 15 -78 0
-399 -190 0
-399 -183 0
-399 -53 0
-399 -173 0
-399 81 0
399 190 183 53 173 -81 0
-400 -106 0
-400 -86 0
-400 190 0
-400 -73 0
-400 15 0
400 106 86 -190 73 -15 0
396 397 398 399 400 0
-401 114 0
-401 141 0
-401 36 0
-401 161 0
-401 -115 0
401 -114 -141 -36 -161 115 0
-402 -76 0
-402 115 0
-402 108 0
-402 159 0
-402 -41 0
402 76 -115 -108 -159 41 0
-403 190 0
-403 -67 0
-403 -49 0
-403 -31 0
-403 -53 0
403 -190 67 49 31 53 0
-404 -171 0
-404 -65 0
-404 -5 0
-404 111 0
-404 -80 0
404 171 65 5 -111 80 0
-405 184 0
-405 90 0
-405 183 0
-405 122 0
-405 119 0
405 -184 -90 -183 -122 -119 0
401 402 403 404 405 0
-406 67 0
-406 160 0
-406 -77 0
-406 -142 0
-406 -81 0
406 -67 -160 77 142 81 0
-407 171 0
-407 150 0
-407 151 0
-407 -51 0
-407 86 0
407 -171 -150 -151 51 -86 0
-408 35 0
-408 41 0
-408 -96 0
-408 190 0
-408 -31 0
408 -35 -41 96 -190 31 0
-409 21 0
-409 -88 0
-409 -17 0
-409 -108 0
-409 -147 0
409 -21 88 17 108 147 0
-410 84 0
-410 142 0
-410 24 0
-410 166 0
-410 -107 0
410 -84 -142 -24 -166 107 0
406 407 408 409 410 0
-411 -110 0
-411 4 0
-411 65 0
-411 111 0
-411 184 0
411 110 -4 -65 -111 -184 0
-412 104 0
-412 52 0
-412 -115 0
-412 73 0
-412 -137 0
412 -104 -52 115 -73 137 0
-413 184 0
-413 102 0
-413 -86 0
-413 119 0
-413 173 0
413 -184 -102 86 -119 -173 0
-414 -186 0
-414 123 0
-414 151 0
-414 -174 0
-414 -130 0
414 186 -123 -151 174 130 0
-415 112 0
-415 -87 0
-415 -171 0
-415 -89 0
-415 179 0
415 -112 87 171 89 -179 0
411 412 413 414 415 0
-416 128 0
-416 103 0
-416 20 0
-416 43 0
-416 133 0
416 -128 -103 -20 -43 -133 0
-417 18 0
-417 128 0
-417 54 0
-417 30 0
-417 152 0
417 -18 -128 -54 -30 -152 0
-418 29 0
-418 -15 0
-418 39 0
-418 -97 0
-418 -27 0
418 -29 15 -39 97 27 0
-419 61 0
-419 -103 0
-419 -10 0
-419 11 0
-419 36 0
419 -61 103 10 -11 -36 0
-420 -158 0
-420 -124 0
-420 -4 0
-420 -73 0
-420 -97 0
420 158 124 4 73 97 0
416 417 418 419 420 0
-421 -118 0
-421 32 0
-421 -19 0
-421 -157 0
-421 139 0
421 118 -32 19 157 -139 0
-422 158 0
-422 -75 0
-422 -137 0
-422 120 0
-422 -24 0
422 -158 75 137 -120 24 0
-423 185 0
-423 -140 0
-423 144 0
-423 -113 0
-423 13 0
423 -185 140 -144 113 -13 0
-424 -102 0
-424 -119 0
-424 -157 0
-424 -13 0
-424 149 0
424 102 119 157 13 -149 0
-425 -190 0
-425 68 0
-425 61 0
-425 178 0
-425 -86 0
425 190 -68 -61 -178 86 0
421 422 423 424 425 0
-426 -100 0
-426 -89 0
-426 160 0
-426 -69 0
-426 121 0
426 100 89 -160 69 -121 0
-427 -164 0
-427 -72 0
-427 -16 0
-427 -109 0
-427 -88 0
427 164 72 16 109 88 0
-428 -38 0
-428 44 0
-428 -3 0
-428 -80 0
-428 119 0
428 38 -44 3 80 -119 0
-429 142 0
-429 -62 0
-429 91 0
-429 170 0
-429 -139 0
429 -142 62 -91 -170 139 0
-430 -39 0
-430 107 0
-430 79 0
-430 -156 0
-430 89 0
430 39 -107 -79 156 -89 0
426 427 428 429 430 0
